72
300
210	1
209	1
205	1
203	1
202	1
199	2
192	1
191	3
189	1
188	2
186	1
185	1
184	1
179	2
178	1
177	1
175	1
169	2
168	3
167	2
166	1
164	1
161	3
160	1
159	1
158	1
155	1
154	1
152	1
145	2
141	4
140	1
139	2
136	1
134	1
131	1
130	3
127	1
126	1
125	1
124	2
122	1
121	4
119	1
118	2
117	1
115	2
112	1
109	2
108	1
107	1
105	1
104	1
101	1
97	1
96	1
89	1
85	1
84	2
83	1
82	1
81	1
80	1
78	1
74	1
72	3
71	1
70	1
69	1
68	1
67	1
64	1
